Maximize
	- 1 x1 + 3 x2 + 3 x3 - 2 x4 - 1 x5 
Maximize
	+ 1 x1 - 1 x2 + 1 x3 
Maximize
	- 2 x1 + 3 x2 + 6 x5 
Subject To
	+ 2 x1 + 6 x2 + 6 x3 + 6 x4 - 3 x5 <= 6
	+ 1 x1 + 2 x3 - 4 x4 <= 5
	+ 4 x1 - 2 x3 + 2 x5 <= 10
Bounds
	0 <= x1 <= 4
	0 <= x2 <= 4
	0 <= x3 <= 4
	0 <= x4 <= 4
	0 <= x5 <= 4
Integers
	x1 x2 x3 x4 x5 
End